c CNF file corresponding to a (partial) station packing problem.
p cnf 1348 148
1 2 3 4 5 6 7 8 9 10 11 12 13 14 0
-1 -2 0
-1 -3 0
-1 -4 0
-1 -5 0
-1 -6 0
-1 -7 0
-1 -8 0
-1 -9 0
-1 -10 0
-1 -11 0
-1 -12 0
-1 -13 0
-1 -14 0
-2 -3 0
-2 -4 0
-2 -5 0
-2 -6 0
-2 -7 0
-2 -8 0
-2 -9 0
-2 -10 0
-2 -11 0
-2 -12 0
-2 -13 0
-2 -14 0
-3 -4 0
-3 -5 0
-3 -6 0
-3 -7 0
-3 -8 0
-3 -9 0
-3 -10 0
-3 -11 0
-3 -12 0
-3 -13 0
-3 -14 0
-4 -5 0
-4 -6 0
-4 -7 0
-4 -8 0
-4 -9 0
-4 -10 0
-4 -11 0
-4 -12 0
-4 -13 0
-4 -14 0
-5 -6 0
-5 -7 0
-5 -8 0
-5 -9 0
-5 -10 0
-5 -11 0
-5 -12 0
-5 -13 0
-5 -14 0
-6 -7 0
-6 -8 0
-6 -9 0
-6 -10 0
-6 -11 0
-6 -12 0
-6 -13 0
-6 -14 0
-7 -8 0
-7 -9 0
-7 -10 0
-7 -11 0
-7 -12 0
-7 -13 0
-7 -14 0
-8 -9 0
-8 -10 0
-8 -11 0
-8 -12 0
-8 -13 0
-8 -14 0
-9 -10 0
-9 -11 0
-9 -12 0
-9 -13 0
-9 -14 0
-10 -11 0
-10 -12 0
-10 -13 0
-10 -14 0
-11 -12 0
-11 -13 0
-11 -14 0
-12 -13 0
-12 -14 0
-13 -14 0
-8 -1342 0
-14 -1348 0
-4 -1339 0
-9 -1343 0
-1341 -6 0
-1344 -10 0
-1345 -11 0
-1340 -5 0
-12 -1346 0
-1347 -13 0
1339 1340 1341 1342 1343 1344 1345 1346 1347 1348 0
-1339 -1340 0
-1339 -1341 0
-1339 -1342 0
-1339 -1343 0
-1339 -1344 0
-1339 -1345 0
-1339 -1346 0
-1339 -1347 0
-1339 -1348 0
-1340 -1341 0
-1340 -1342 0
-1340 -1343 0
-1340 -1344 0
-1340 -1345 0
-1340 -1346 0
-1340 -1347 0
-1340 -1348 0
-1341 -1342 0
-1341 -1343 0
-1341 -1344 0
-1341 -1345 0
-1341 -1346 0
-1341 -1347 0
-1341 -1348 0
-1342 -1343 0
-1342 -1344 0
-1342 -1345 0
-1342 -1346 0
-1342 -1347 0
-1342 -1348 0
-1343 -1344 0
-1343 -1345 0
-1343 -1346 0
-1343 -1347 0
-1343 -1348 0
-1344 -1345 0
-1344 -1346 0
-1344 -1347 0
-1344 -1348 0
-1345 -1346 0
-1345 -1347 0
-1345 -1348 0
-1346 -1347 0
-1346 -1348 0
-1347 -1348 0
